\ENCODING=ISO-8859-1
\Problem name: ilog.cplex

Minimize
 obj1: 102966 x1 + 96668 x2 + 106286 x3 + 99237 x4 + 103216 x5 + 105902 x6
       + 91130 x7 + 92251 x8 + 106095 x9 + 108941 x10 + 94181 x11 + 94543 x12
       + 103863 x13 + 101053 x14 + 95754 x15 + 102558 x16 + 101997 x17
       + 93186 x18 + 99044 x19 + 90935 x20 + 92910 x21 + 100223 x22 + 99507 x23
       + 106527 x24 + 98648 x25 + 92796 x26 + 98530 x27 + 108591 x28
       + 107929 x29 + 101270 x30 + 91351 x31 + 93743 x32 + 93548 x33
       + 98162 x34 + 105217 x35 + 99793 x36 + 92443 x37 + 103585 x38
       + 95286 x39 + 108670 x40 + 102603 x41 + 97226 x42 + 103032 x43
       + 105387 x44 + 98521 x45 + 99910 x46 + 104717 x47 + 97377 x48
       + 90048 x49 + 107979 x50 + 105971 x51 + 96485 x52 + 108258 x53
       + 104531 x54 + 92585 x55 + 94554 x56 + 96349 x57 + 92973 x58
       + 107335 x59 + 102747 x60 + 94634 x61 + 106057 x62 + 100943 x63
       + 92676 x64 + 93554 x65 + 98946 x66 + 92732 x67 + 95063 x68 + 95860 x69
       + 102553 x70 + 105604 x71 + 94658 x72 + 103424 x73 + 96043 x74
       + 101815 x75 + 94553 x76 + 91116 x77 + 101646 x78 + 96705 x79
       + 93035 x80 + 97972 x81 + 105522 x82 + 92331 x83 + 94255 x84
       + 104365 x85 + 100964 x86 + 103417 x87 + 107955 x88 + 101767 x89
       + 104626 x90 + 102040 x91 + 98542 x92 + 96498 x93 + 107113 x94
       + 95139 x95 + 99785 x96 + 94400 x97 + 105536 x98 + 97253 x99
       + 92987 x100 + 109450 x101 + 107532 x102 + 109790 x103 + 93666 x104
       + 106088 x105 + 93755 x106 + 107712 x107 + 104664 x108 + 102384 x109
       + 99020 x110 + 104673 x111 + 91993 x112 + 109159 x113 + 101005 x114
       + 98457 x115 + 103866 x116 + 98798 x117 + 109867 x118 + 109990 x119
       + 103038 x120 + 97924 x121 + 108359 x122 + 97564 x123 + 90074 x124
       + 98906 x125 + 104892 x126 + 90177 x127 + 93149 x128 + 92851 x129
       + 92306 x130 + 109023 x131 + 102436 x132 + 101028 x133 + 99814 x134
       + 109958 x135 + 94782 x136 + 103491 x137 + 106250 x138 + 95276 x139
       + 109683 x140 + 96403 x141 + 95940 x142 + 93122 x143 + 105940 x144
       + 97900 x145 + 99191 x146 + 97604 x147 + 104407 x148 + 92782 x149
       + 96764 x150 + 105621 x151 + 101027 x152 + 106639 x153 + 92587 x154
       + 107040 x155 + 92104 x156 + 106006 x157 + 94417 x158 + 101154 x159
       + 91968 x160 + 92699 x161 + 108304 x162 + 104209 x163 + 102213 x164
       + 97693 x165 + 109429 x166 + 100351 x167 + 91148 x168 + 102757 x169
       + 99266 x170 + 91453 x171 + 102351 x172 + 106483 x173 + 96983 x174
       + 100076 x175 + 91961 x176 + 105461 x177 + 101647 x178 + 94195 x179
       + 95815 x180 + 109541 x181 + 107450 x182 + 92419 x183 + 93499 x184
       + 107442 x185 + 108020 x186 + 102333 x187 + 97257 x188 + 109264 x189
       + 102815 x190 + 101094 x191 + 96773 x192 + 107894 x193 + 93199 x194
       + 92548 x195 + 99460 x196 + 95586 x197 + 96702 x198 + 109484 x199
       + 98567 x200 + 91450 x201 + 98976 x202 + 109372 x203 + 102534 x204
       + 98809 x205 + 108760 x206 + 98309 x207 + 108433 x208 + 107382 x209
       + 106439 x210 + 95381 x211 + 100793 x212 + 102345 x213 + 107134 x214
       + 104478 x215 + 107780 x216 + 90000 x217 + 95215 x218 + 106110 x219
       + 92948 x220 + 98050 x221 + 108711 x222 + 97875 x223 + 102695 x224
       + 97435 x225 + 99289 x226 + 98966 x227 + 107064 x228 + 102224 x229
       + 106324 x230 + 91476 x231 + 104667 x232 + 94234 x233 + 102014 x234
       + 99251 x235 + 91300 x236 + 109838 x237 + 108608 x238 + 103624 x239
       + 96188 x240 + 109846 x241 + 109575 x242 + 103218 x243 + 96291 x244
       + 103154 x245 + 94212 x246 + 98552 x247 + 94482 x248 + 108543 x249
       + 107260 x250 + 99116 x251 + 98163 x252 + 101058 x253 + 92053 x254
       + 108522 x255 + 95057 x256 + 99617 x257 + 90259 x258 + 108614 x259
       + 106356 x260 + 106886 x261 + 91777 x262 + 94977 x263 + 97474 x264
       + 99995 x265 + 90424 x266 + 94898 x267 + 105616 x268 + 93705 x269
       + 108228 x270 + 98704 x271 + 109174 x272 + 102642 x273 + 108162 x274
       + 95720 x275 + 108811 x276 + 109875 x277 + 92870 x278 + 92050 x279
       + 105582 x280 + 105386 x281 + 105203 x282 + 98964 x283 + 107557 x284
       + 109846 x285 + 105317 x286 + 97886 x287 + 93165 x288 + 106677 x289
       + 98658 x290 + 90799 x291 + 106795 x292 + 108485 x293 + 109299 x294
       + 93365 x295 + 100244 x296 + 102730 x297 + 93924 x298 + 102102 x299
       - 18915 x300 + 217150 x301 + 214714 x302 + 194367 x303 + 207162 x304
       + 215776 x305 + 211963 x306 + 200466 x307 + 218930 x308 + 186689 x309
       + 183129 x310 + 188303 x311 + 187896 x312 + 209490 x313 + 209967 x314
       + 217377 x315 + 213638 x316 + 193420 x317 + 181305 x318 + 198395 x319
       + 194004 x320 + 213182 x321 + 203203 x322 + 190801 x323 + 216233 x324
       + 188765 x325 + 211490 x326 + 211082 x327 + 201936 x328 + 184258 x329
       + 199188 x330 + 181509 x331 + 215532 x332 + 216025 x333 + 203929 x334
       + 201274 x335 + 180140 x336 + 199652 x337 + 186720 x338 + 217911 x339
       + 193109 x340 + 207997 x341 + 213475 x342 + 216631 x343 + 195260 x344
       + 199225 x345 + 204509 x346 + 188685 x347 + 183603 x348 + 204083 x349
       + 184735 x350 + 187084 x351 + 186677 x352 + 195771 x353 + 208583 x354
       + 208989 x355 + 204859 x356 + 183614 x357 + 188724 x358 + 218808 x359
       + 158608 x360
Subject To
 c1:   x11 - x30 + x32 - x40 + x53  = 0
 c2:   x71 - x90 + x92 - x100 + x113  = 0
 c3:   x131 - x150 + x152 - x160 + x173  = 0
 c4:   x191 - x210 + x212 - x220 + x233  = 0
 c5:   x251 - x270 + x272 - x280 + x293  = 0
 c6:   - x3 - x4 - x25 + x26 - x41 - x56 + x57  = 0
 c7:   - x63 - x64 - x85 + x86 - x101 - x116 + x117  = 0
 c8:   - x123 - x124 - x145 + x146 - x161 - x176 + x177  = 1
 c9:   - x183 - x184 - x205 + x206 - x221 - x236 + x237  = -1
 c10:  - x243 - x244 - x265 + x266 - x281 - x296 + x297  = 0
 c11:  x3 + x12 + x31 + x33 - x48 - x51  = 0
 c12:  x63 + x72 + x91 + x93 - x108 - x111  = 0
 c13:  x123 + x132 + x151 + x153 - x168 - x171  = 0
 c14:  x183 + x192 + x211 + x213 - x228 - x231  = 0
 c15:  x243 + x252 + x271 + x273 - x288 - x291  = 0
 c16:  x6 + x7 - x12 - x14 - x15 - x18 - x23 - x35 + x45 + x48 - x49 + x50
       + x59  = 0
 c17:  x66 + x67 - x72 - x74 - x75 - x78 - x83 - x95 + x105 + x108 - x109
       + x110 + x119  = 0
 c18:  x126 + x127 - x132 - x134 - x135 - x138 - x143 - x155 + x165 + x168
       - x169 + x170 + x179  = 0
 c19:  x186 + x187 - x192 - x194 - x195 - x198 - x203 - x215 + x225 + x228
       - x229 + x230 + x239  = 0
 c20:  x246 + x247 - x252 - x254 - x255 - x258 - x263 - x275 + x285 + x288
       - x289 + x290 + x299  = 0
 c21:  x9 - x10 - x26 - x43 + x44  = -1
 c22:  x69 - x70 - x86 - x103 + x104  = 0
 c23:  x129 - x130 - x146 - x163 + x164  = 0
 c24:  x189 - x190 - x206 - x223 + x224  = 0
 c25:  x249 - x250 - x266 - x283 + x284  = 0
 c26:  - x8 - x11 + x17 + x36 + x42 - x45 + x54  = 0
 c27:  - x68 - x71 + x77 + x96 + x102 - x105 + x114  = 0
 c28:  - x128 - x131 + x137 + x156 + x162 - x165 + x174  = 0
 c29:  - x188 - x191 + x197 + x216 + x222 - x225 + x234  = 0
 c30:  - x248 - x251 + x257 + x276 + x282 - x285 + x294  = 0
 c31:  x1 + x4 + x14 - x17 - x20 - x31 - x46 - x53 - x60  = 0
 c32:  x61 + x64 + x74 - x77 - x80 - x91 - x106 - x113 - x120  = 0
 c33:  x121 + x124 + x134 - x137 - x140 - x151 - x166 - x173 - x180  = 0
 c34:  x181 + x184 + x194 - x197 - x200 - x211 - x226 - x233 - x240  = 0
 c35:  x241 + x244 + x254 - x257 - x260 - x271 - x286 - x293 - x300  = 1
 c36:  - x5 + x13 - x16 + x23 + x27 - x42 - x55  = 0
 c37:  - x65 + x73 - x76 + x83 + x87 - x102 - x115  = 1
 c38:  - x125 + x133 - x136 + x143 + x147 - x162 - x175  = 0
 c39:  - x185 + x193 - x196 + x203 + x207 - x222 - x235  = 0
 c40:  - x245 + x253 - x256 + x263 + x267 - x282 - x295  = 0
 c41:  x8 - x9 + x16 + x20 - x27 - x37 + x40 + x43 - x52 - x58  = 0
 c42:  x68 - x69 + x76 + x80 - x87 - x97 + x100 + x103 - x112 - x118  = 0
 c43:  x128 - x129 + x136 + x140 - x147 - x157 + x160 + x163 - x172 - x178
        = -1
 c44:  x188 - x189 + x196 + x200 - x207 - x217 + x220 + x223 - x232 - x238  = 1
 c45:  x248 - x249 + x256 + x260 - x267 - x277 + x280 + x283 - x292 - x298  = 0
 c46:  - x2 + x22 - x32 - x36 - x39 - x47 + x49  = 0
 c47:  - x62 + x82 - x92 - x96 - x99 - x107 + x109  = 0
 c48:  - x122 + x142 - x152 - x156 - x159 - x167 + x169  = 0
 c49:  - x182 + x202 - x212 - x216 - x219 - x227 + x229  = 0
 c50:  - x242 + x262 - x272 - x276 - x279 - x287 + x289  = 0
 c51:  - x13 + x15 + x19 + x21 + x28 + x29 - x33 - x44 + x46 + x56 + x58 - x59
        = 0
 c52:  - x73 + x75 + x79 + x81 + x88 + x89 - x93 - x104 + x106 + x116 + x118
       - x119  = 0
 c53:  - x133 + x135 + x139 + x141 + x148 + x149 - x153 - x164 + x166 + x176
       + x178 - x179  = 0
 c54:  - x193 + x195 + x199 + x201 + x208 + x209 - x213 - x224 + x226 + x236
       + x238 - x239  = 0
 c55:  - x253 + x255 + x259 + x261 + x268 + x269 - x273 - x284 + x286 + x296
       + x298 - x299  = -1
 c56:  x18 - x21 + x24 + x38 + x41 - x50 - x57 + x60  = 0
 c57:  x78 - x81 + x84 + x98 + x101 - x110 - x117 + x120  = 0
 c58:  x138 - x141 + x144 + x158 + x161 - x170 - x177 + x180  = 0
 c59:  x198 - x201 + x204 + x218 + x221 - x230 - x237 + x240  = 0
 c60:  x258 - x261 + x264 + x278 + x281 - x290 - x297 + x300  = 0
 c61:  x5 - x7 + x10 - x29 + x34 + x35 + x37 - x38 + x39 - x54  = 0
 c62:  x65 - x67 + x70 - x89 + x94 + x95 + x97 - x98 + x99 - x114  = 0
 c63:  x125 - x127 + x130 - x149 + x154 + x155 + x157 - x158 + x159 - x174  = 0
 c64:  x185 - x187 + x190 - x209 + x214 + x215 + x217 - x218 + x219 - x234  = 0
 c65:  x245 - x247 + x250 - x269 + x274 + x275 + x277 - x278 + x279 - x294  = 0
 c66:  x2 - x6 - x24 - x28 + x30 + x55  = 1
 c67:  x62 - x66 - x84 - x88 + x90 + x115  = -1
 c68:  x122 - x126 - x144 - x148 + x150 + x175  = 0
 c69:  x182 - x186 - x204 - x208 + x210 + x235  = 0
 c70:  x242 - x246 - x264 - x268 + x270 + x295  = 0
 c71:  - x1 - x19 - x22 + x25 - x34 + x47 + x51 + x52  = 0
 c72:  - x61 - x79 - x82 + x85 - x94 + x107 + x111 + x112  = 0
 c73:  - x121 - x139 - x142 + x145 - x154 + x167 + x171 + x172  = 0
 c74:  - x181 - x199 - x202 + x205 - x214 + x227 + x231 + x232  = 0
 c75:  - x241 - x259 - x262 + x265 - x274 + x287 + x291 + x292  = 0
 c76:  4 x1 + 4 x61 + 4 x121 + 4 x181 + 4 x241 - 10 x301 <= 0
 c77:  4 x2 + 4 x62 + 4 x122 + 4 x182 + 4 x242 - 10 x302 <= 0
 c78:  4 x3 + 4 x63 + 4 x123 + 4 x183 + 4 x243 - 11 x303 <= 0
 c79:  4 x4 + 4 x64 + 4 x124 + 4 x184 + 4 x244 - 10 x304 <= 0
 c80:  4 x5 + 4 x65 + 4 x125 + 4 x185 + 4 x245 - 11 x305 <= 0
 c81:  4 x6 + 4 x66 + 4 x126 + 4 x186 + 4 x246 - 9 x306 <= 0
 c82:  4 x7 + 4 x67 + 4 x127 + 4 x187 + 4 x247 - 10 x307 <= 0
 c83:  4 x8 + 4 x68 + 4 x128 + 4 x188 + 4 x248 - 10 x308 <= 0
 c84:  4 x9 + 4 x69 + 4 x129 + 4 x189 + 4 x249 - 10 x309 <= 0
 c85:  4 x10 + 4 x70 + 4 x130 + 4 x190 + 4 x250 - 9 x310 <= 0
 c86:  4 x11 + 4 x71 + 4 x131 + 4 x191 + 4 x251 - 10 x311 <= 0
 c87:  4 x12 + 4 x72 + 4 x132 + 4 x192 + 4 x252 - 9 x312 <= 0
 c88:  4 x13 + 4 x73 + 4 x133 + 4 x193 + 4 x253 - 10 x313 <= 0
 c89:  4 x14 + 4 x74 + 4 x134 + 4 x194 + 4 x254 - 10 x314 <= 0
 c90:  4 x15 + 4 x75 + 4 x135 + 4 x195 + 4 x255 - 9 x315 <= 0
 c91:  4 x16 + 4 x76 + 4 x136 + 4 x196 + 4 x256 - 11 x316 <= 0
 c92:  4 x17 + 4 x77 + 4 x137 + 4 x197 + 4 x257 - 10 x317 <= 0
 c93:  4 x18 + 4 x78 + 4 x138 + 4 x198 + 4 x258 - 9 x318 <= 0
 c94:  4 x19 + 4 x79 + 4 x139 + 4 x199 + 4 x259 - 10 x319 <= 0
 c95:  4 x20 + 4 x80 + 4 x140 + 4 x200 + 4 x260 - 10 x320 <= 0
 c96:  4 x21 + 4 x81 + 4 x141 + 4 x201 + 4 x261 - 10 x321 <= 0
 c97:  4 x22 + 4 x82 + 4 x142 + 4 x202 + 4 x262 - 10 x322 <= 0
 c98:  4 x23 + 4 x83 + 4 x143 + 4 x203 + 4 x263 - 11 x323 <= 0
 c99:  4 x24 + 4 x84 + 4 x144 + 4 x204 + 4 x264 - 10 x324 <= 0
 c100: 4 x25 + 4 x85 + 4 x145 + 4 x205 + 4 x265 - 10 x325 <= 0
 c101: 4 x26 + 4 x86 + 4 x146 + 4 x206 + 4 x266 - 9 x326 <= 0
 c102: 4 x27 + 4 x87 + 4 x147 + 4 x207 + 4 x267 - 11 x327 <= 0
 c103: 4 x28 + 4 x88 + 4 x148 + 4 x208 + 4 x268 - 11 x328 <= 0
 c104: 4 x29 + 4 x89 + 4 x149 + 4 x209 + 4 x269 - 10 x329 <= 0
 c105: 4 x30 + 4 x90 + 4 x150 + 4 x210 + 4 x270 - 9 x330 <= 0
 c106: 4 x31 + 4 x91 + 4 x151 + 4 x211 + 4 x271 - 10 x331 <= 0
 c107: 4 x32 + 4 x92 + 4 x152 + 4 x212 + 4 x272 - 11 x332 <= 0
 c108: 4 x33 + 4 x93 + 4 x153 + 4 x213 + 4 x273 - 10 x333 <= 0
 c109: 4 x34 + 4 x94 + 4 x154 + 4 x214 + 4 x274 - 10 x334 <= 0
 c110: 4 x35 + 4 x95 + 4 x155 + 4 x215 + 4 x275 - 10 x335 <= 0
 c111: 4 x36 + 4 x96 + 4 x156 + 4 x216 + 4 x276 - 10 x336 <= 0
 c112: 4 x37 + 4 x97 + 4 x157 + 4 x217 + 4 x277 - 9 x337 <= 0
 c113: 4 x38 + 4 x98 + 4 x158 + 4 x218 + 4 x278 - 11 x338 <= 0
 c114: 4 x39 + 4 x99 + 4 x159 + 4 x219 + 4 x279 - 10 x339 <= 0
 c115: 4 x40 + 4 x100 + 4 x160 + 4 x220 + 4 x280 - 9 x340 <= 0
 c116: 4 x41 + 4 x101 + 4 x161 + 4 x221 + 4 x281 - 10 x341 <= 0
 c117: 4 x42 + 4 x102 + 4 x162 + 4 x222 + 4 x282 - 9 x342 <= 0
 c118: 4 x43 + 4 x103 + 4 x163 + 4 x223 + 4 x283 - 10 x343 <= 0
 c119: 4 x44 + 4 x104 + 4 x164 + 4 x224 + 4 x284 - 10 x344 <= 0
 c120: 4 x45 + 4 x105 + 4 x165 + 4 x225 + 4 x285 - 9 x345 <= 0
 c121: 4 x46 + 4 x106 + 4 x166 + 4 x226 + 4 x286 - 10 x346 <= 0
 c122: 4 x47 + 4 x107 + 4 x167 + 4 x227 + 4 x287 - 11 x347 <= 0
 c123: 4 x48 + 4 x108 + 4 x168 + 4 x228 + 4 x288 - 10 x348 <= 0
 c124: 4 x49 + 4 x109 + 4 x169 + 4 x229 + 4 x289 - 10 x349 <= 0
 c125: 4 x50 + 4 x110 + 4 x170 + 4 x230 + 4 x290 - 9 x350 <= 0
 c126: 4 x51 + 4 x111 + 4 x171 + 4 x231 + 4 x291 - 9 x351 <= 0
 c127: 4 x52 + 4 x112 + 4 x172 + 4 x232 + 4 x292 - 11 x352 <= 0
 c128: 4 x53 + 4 x113 + 4 x173 + 4 x233 + 4 x293 - 10 x353 <= 0
 c129: 4 x54 + 4 x114 + 4 x174 + 4 x234 + 4 x294 - 9 x354 <= 0
 c130: 4 x55 + 4 x115 + 4 x175 + 4 x235 + 4 x295 - 9 x355 <= 0
 c131: 4 x56 + 4 x116 + 4 x176 + 4 x236 + 4 x296 - 10 x356 <= 0
 c132: 4 x57 + 4 x117 + 4 x177 + 4 x237 + 4 x297 - 10 x357 <= 0
 c133: 4 x58 + 4 x118 + 4 x178 + 4 x238 + 4 x298 - 10 x358 <= 0
 c134: 4 x59 + 4 x119 + 4 x179 + 4 x239 + 4 x299 - 10 x359 <= 0
 c135: 4 x60 + 4 x120 + 4 x180 + 4 x240 + 4 x300 - 15 x360 <= 0
Bounds
 0 <= x1 <= 1
 0 <= x2 <= 1
 0 <= x3 <= 1
 0 <= x4 <= 1
 0 <= x5 <= 1
 0 <= x6 <= 1
 0 <= x7 <= 1
 0 <= x8 <= 1
 0 <= x9 <= 1
 0 <= x10 <= 1
 0 <= x11 <= 1
 0 <= x12 <= 1
 0 <= x13 <= 1
 0 <= x14 <= 1
 0 <= x15 <= 1
 0 <= x16 <= 1
 0 <= x17 <= 1
 0 <= x18 <= 1
 0 <= x19 <= 1
 0 <= x20 <= 1
 0 <= x21 <= 1
 0 <= x22 <= 1
 0 <= x23 <= 1
 0 <= x24 <= 1
 0 <= x25 <= 1
 0 <= x26 <= 1
 0 <= x27 <= 1
 0 <= x28 <= 1
 0 <= x29 <= 1
 0 <= x30 <= 1
 0 <= x31 <= 1
 0 <= x32 <= 1
 0 <= x33 <= 1
 0 <= x34 <= 1
 0 <= x35 <= 1
 0 <= x36 <= 1
 0 <= x37 <= 1
 0 <= x38 <= 1
 0 <= x39 <= 1
 0 <= x40 <= 1
 0 <= x41 <= 1
 0 <= x42 <= 1
 0 <= x43 <= 1
 0 <= x44 <= 1
 0 <= x45 <= 1
 0 <= x46 <= 1
 0 <= x47 <= 1
 0 <= x48 <= 1
 0 <= x49 <= 1
 0 <= x50 <= 1
 0 <= x51 <= 1
 0 <= x52 <= 1
 0 <= x53 <= 1
 0 <= x54 <= 1
 0 <= x55 <= 1
 0 <= x56 <= 1
 0 <= x57 <= 1
 0 <= x58 <= 1
 0 <= x59 <= 1
 0 <= x60 <= 1
 0 <= x61 <= 1
 0 <= x62 <= 1
 0 <= x63 <= 1
 0 <= x64 <= 1
 0 <= x65 <= 1
 0 <= x66 <= 1
 0 <= x67 <= 1
 0 <= x68 <= 1
 0 <= x69 <= 1
 0 <= x70 <= 1
 0 <= x71 <= 1
 0 <= x72 <= 1
 0 <= x73 <= 1
 0 <= x74 <= 1
 0 <= x75 <= 1
 0 <= x76 <= 1
 0 <= x77 <= 1
 0 <= x78 <= 1
 0 <= x79 <= 1
 0 <= x80 <= 1
 0 <= x81 <= 1
 0 <= x82 <= 1
 0 <= x83 <= 1
 0 <= x84 <= 1
 0 <= x85 <= 1
 0 <= x86 <= 1
 0 <= x87 <= 1
 0 <= x88 <= 1
 0 <= x89 <= 1
 0 <= x90 <= 1
 0 <= x91 <= 1
 0 <= x92 <= 1
 0 <= x93 <= 1
 0 <= x94 <= 1
 0 <= x95 <= 1
 0 <= x96 <= 1
 0 <= x97 <= 1
 0 <= x98 <= 1
 0 <= x99 <= 1
 0 <= x100 <= 1
 0 <= x101 <= 1
 0 <= x102 <= 1
 0 <= x103 <= 1
 0 <= x104 <= 1
 0 <= x105 <= 1
 0 <= x106 <= 1
 0 <= x107 <= 1
 0 <= x108 <= 1
 0 <= x109 <= 1
 0 <= x110 <= 1
 0 <= x111 <= 1
 0 <= x112 <= 1
 0 <= x113 <= 1
 0 <= x114 <= 1
 0 <= x115 <= 1
 0 <= x116 <= 1
 0 <= x117 <= 1
 0 <= x118 <= 1
 0 <= x119 <= 1
 0 <= x120 <= 1
 0 <= x121 <= 1
 0 <= x122 <= 1
 0 <= x123 <= 1
 0 <= x124 <= 1
 0 <= x125 <= 1
 0 <= x126 <= 1
 0 <= x127 <= 1
 0 <= x128 <= 1
 0 <= x129 <= 1
 0 <= x130 <= 1
 0 <= x131 <= 1
 0 <= x132 <= 1
 0 <= x133 <= 1
 0 <= x134 <= 1
 0 <= x135 <= 1
 0 <= x136 <= 1
 0 <= x137 <= 1
 0 <= x138 <= 1
 0 <= x139 <= 1
 0 <= x140 <= 1
 0 <= x141 <= 1
 0 <= x142 <= 1
 0 <= x143 <= 1
 0 <= x144 <= 1
 0 <= x145 <= 1
 0 <= x146 <= 1
 0 <= x147 <= 1
 0 <= x148 <= 1
 0 <= x149 <= 1
 0 <= x150 <= 1
 0 <= x151 <= 1
 0 <= x152 <= 1
 0 <= x153 <= 1
 0 <= x154 <= 1
 0 <= x155 <= 1
 0 <= x156 <= 1
 0 <= x157 <= 1
 0 <= x158 <= 1
 0 <= x159 <= 1
 0 <= x160 <= 1
 0 <= x161 <= 1
 0 <= x162 <= 1
 0 <= x163 <= 1
 0 <= x164 <= 1
 0 <= x165 <= 1
 0 <= x166 <= 1
 0 <= x167 <= 1
 0 <= x168 <= 1
 0 <= x169 <= 1
 0 <= x170 <= 1
 0 <= x171 <= 1
 0 <= x172 <= 1
 0 <= x173 <= 1
 0 <= x174 <= 1
 0 <= x175 <= 1
 0 <= x176 <= 1
 0 <= x177 <= 1
 0 <= x178 <= 1
 0 <= x179 <= 1
 0 <= x180 <= 1
 0 <= x181 <= 1
 0 <= x182 <= 1
 0 <= x183 <= 1
 0 <= x184 <= 1
 0 <= x185 <= 1
 0 <= x186 <= 1
 0 <= x187 <= 1
 0 <= x188 <= 1
 0 <= x189 <= 1
 0 <= x190 <= 1
 0 <= x191 <= 1
 0 <= x192 <= 1
 0 <= x193 <= 1
 0 <= x194 <= 1
 0 <= x195 <= 1
 0 <= x196 <= 1
 0 <= x197 <= 1
 0 <= x198 <= 1
 0 <= x199 <= 1
 0 <= x200 <= 1
 0 <= x201 <= 1
 0 <= x202 <= 1
 0 <= x203 <= 1
 0 <= x204 <= 1
 0 <= x205 <= 1
 0 <= x206 <= 1
 0 <= x207 <= 1
 0 <= x208 <= 1
 0 <= x209 <= 1
 0 <= x210 <= 1
 0 <= x211 <= 1
 0 <= x212 <= 1
 0 <= x213 <= 1
 0 <= x214 <= 1
 0 <= x215 <= 1
 0 <= x216 <= 1
 0 <= x217 <= 1
 0 <= x218 <= 1
 0 <= x219 <= 1
 0 <= x220 <= 1
 0 <= x221 <= 1
 0 <= x222 <= 1
 0 <= x223 <= 1
 0 <= x224 <= 1
 0 <= x225 <= 1
 0 <= x226 <= 1
 0 <= x227 <= 1
 0 <= x228 <= 1
 0 <= x229 <= 1
 0 <= x230 <= 1
 0 <= x231 <= 1
 0 <= x232 <= 1
 0 <= x233 <= 1
 0 <= x234 <= 1
 0 <= x235 <= 1
 0 <= x236 <= 1
 0 <= x237 <= 1
 0 <= x238 <= 1
 0 <= x239 <= 1
 0 <= x240 <= 1
 0 <= x241 <= 1
 0 <= x242 <= 1
 0 <= x243 <= 1
 0 <= x244 <= 1
 0 <= x245 <= 1
 0 <= x246 <= 1
 0 <= x247 <= 1
 0 <= x248 <= 1
 0 <= x249 <= 1
 0 <= x250 <= 1
 0 <= x251 <= 1
 0 <= x252 <= 1
 0 <= x253 <= 1
 0 <= x254 <= 1
 0 <= x255 <= 1
 0 <= x256 <= 1
 0 <= x257 <= 1
 0 <= x258 <= 1
 0 <= x259 <= 1
 0 <= x260 <= 1
 0 <= x261 <= 1
 0 <= x262 <= 1
 0 <= x263 <= 1
 0 <= x264 <= 1
 0 <= x265 <= 1
 0 <= x266 <= 1
 0 <= x267 <= 1
 0 <= x268 <= 1
 0 <= x269 <= 1
 0 <= x270 <= 1
 0 <= x271 <= 1
 0 <= x272 <= 1
 0 <= x273 <= 1
 0 <= x274 <= 1
 0 <= x275 <= 1
 0 <= x276 <= 1
 0 <= x277 <= 1
 0 <= x278 <= 1
 0 <= x279 <= 1
 0 <= x280 <= 1
 0 <= x281 <= 1
 0 <= x282 <= 1
 0 <= x283 <= 1
 0 <= x284 <= 1
 0 <= x285 <= 1
 0 <= x286 <= 1
 0 <= x287 <= 1
 0 <= x288 <= 1
 0 <= x289 <= 1
 0 <= x290 <= 1
 0 <= x291 <= 1
 0 <= x292 <= 1
 0 <= x293 <= 1
 0 <= x294 <= 1
 0 <= x295 <= 1
 0 <= x296 <= 1
 0 <= x297 <= 1
 0 <= x298 <= 1
 0 <= x299 <= 1
 0 <= x300 <= 1
 0 <= x301 <= 1
 0 <= x302 <= 1
 0 <= x303 <= 1
 0 <= x304 <= 1
 0 <= x305 <= 1
 0 <= x306 <= 1
 0 <= x307 <= 1
 0 <= x308 <= 1
 0 <= x309 <= 1
 0 <= x310 <= 1
 0 <= x311 <= 1
 0 <= x312 <= 1
 0 <= x313 <= 1
 0 <= x314 <= 1
 0 <= x315 <= 1
 0 <= x316 <= 1
 0 <= x317 <= 1
 0 <= x318 <= 1
 0 <= x319 <= 1
 0 <= x320 <= 1
 0 <= x321 <= 1
 0 <= x322 <= 1
 0 <= x323 <= 1
 0 <= x324 <= 1
 0 <= x325 <= 1
 0 <= x326 <= 1
 0 <= x327 <= 1
 0 <= x328 <= 1
 0 <= x329 <= 1
 0 <= x330 <= 1
 0 <= x331 <= 1
 0 <= x332 <= 1
 0 <= x333 <= 1
 0 <= x334 <= 1
 0 <= x335 <= 1
 0 <= x336 <= 1
 0 <= x337 <= 1
 0 <= x338 <= 1
 0 <= x339 <= 1
 0 <= x340 <= 1
 0 <= x341 <= 1
 0 <= x342 <= 1
 0 <= x343 <= 1
 0 <= x344 <= 1
 0 <= x345 <= 1
 0 <= x346 <= 1
 0 <= x347 <= 1
 0 <= x348 <= 1
 0 <= x349 <= 1
 0 <= x350 <= 1
 0 <= x351 <= 1
 0 <= x352 <= 1
 0 <= x353 <= 1
 0 <= x354 <= 1
 0 <= x355 <= 1
 0 <= x356 <= 1
 0 <= x357 <= 1
 0 <= x358 <= 1
 0 <= x359 <= 1
 0 <= x360 <= 1
Binaries
 x301  x302  x303  x304  x305  x306  x307  x308  x309  x310  x311  x312  x313 
 x314  x315  x316  x317  x318  x319  x320  x321  x322  x323  x324  x325  x326 
 x327  x328  x329  x330  x331  x332  x333  x334  x335  x336  x337  x338  x339 
 x340  x341  x342  x343  x344  x345  x346  x347  x348  x349  x350  x351  x352 
 x353  x354  x355  x356  x357  x358  x359  x360 
End
